    1C
    1Uccx_demo                                                          
    1UUSER                                                              
    1UDATE              02.august.2020                                  
    1UTIME              22:08:11                                        
    1UHOST                                                              
    1UPGM               CalculiX                                        
    1UVERSION           Version 2.17                             
    1UCOMPILETIME       2020年08月 2日 10:37:21                    
    1UDIR                                                               
    1UDBN                                                               
    1UMAT    1STEEL                                                     
    2C                            12                                     1
 -1         1 0.00000E+00 0.00000E+00 0.00000E+00
 -1         2 0.00000E+00 2.00000E+00 0.00000E+00
 -1         3 5.00000E+00 2.00000E+00 0.00000E+00
 -1         4 1.00000E+01 2.00000E+00 0.00000E+00
 -1         5 1.00000E+01 0.00000E+00 0.00000E+00
 -1         6 5.00000E+00 0.00000E+00 0.00000E+00
 -1         7 0.00000E+00 0.00000E+00 2.00000E+00
 -1         8 0.00000E+00 2.00000E+00 2.00000E+00
 -1         9 5.00000E+00 2.00000E+00 2.00000E+00
 -1        10 1.00000E+01 2.00000E+00 2.00000E+00
 -1        11 1.00000E+01 0.00000E+00 2.00000E+00
 -1        12 5.00000E+00 0.00000E+00 2.00000E+00
 -3
    3C                             2                                     1
 -1         1    1    0    1
 -2         1         7        12         6         2         8         9         3
 -1         2    1    0    1
 -2         6        12        11         5         3         9        10         4
 -3
    1PSTEP                         1           1           1          
  100CL  101 1.000000000          12                     0    1           1
 -4  DISP        4    1
 -5  D1          1    2    1    0
 -5  D2          1    2    2    0
 -5  D3          1    2    3    0
 -5  ALL         1    2    0    0    1ALL
 -1         1 0.00000E+00 0.00000E+00 0.00000E+00
 -1         2 0.00000E+00 0.00000E+00 0.00000E+00
 -1         3-7.34914E-01 2.14531E+00-4.71270E-02
 -1         4-9.83879E-01 6.74516E+00-7.19919E-03
 -1         5 9.97134E-01 6.77540E+00-3.50396E-03
 -1         6 7.31072E-01 2.13870E+00 5.01516E-02
 -1         7 0.00000E+00 0.00000E+00 0.00000E+00
 -1         8 0.00000E+00 0.00000E+00 0.00000E+00
 -1         9-7.34914E-01 2.14531E+00 4.71270E-02
 -1        10-9.83879E-01 6.74516E+00 7.19919E-03
 -1        11 9.97134E-01 6.77540E+00 3.50396E-03
 -1        12 7.31072E-01 2.13870E+00-5.01516E-02
 -3
    1PSTEP                         2           1           1          
  100CL  101 1.000000000          12                     0    1           1
 -4  STRESS      6    1
 -5  SXX         1    4    1    1
 -5  SYY         1    4    2    2
 -5  SZZ         1    4    3    3
 -5  SXY         1    4    1    2
 -5  SYZ         1    4    2    3
 -5  SZX         1    4    3    1
 -1         1 4.13334E+04 1.77143E+04 1.77143E+04 3.45479E+04-1.39338E-02 8.10130E+02
 -1         2-4.15506E+04-1.78074E+04-1.78074E+04 3.46547E+04-1.39338E-02-7.61272E+02
 -1         3-2.17033E+04-5.27607E+03 1.80274E+03-4.72332E+03-3.92852E+03-5.81468E+01
 -1         4-1.50360E+04-9.43538E+03-5.82956E+03-5.69739E+03-1.49243E+02 6.44978E+02
 -1         5 1.36349E+04 2.59631E+03 5.60515E+03-5.10203E+03-1.49243E+02-8.66732E+02
 -1         6 2.25125E+04 6.93895E+03-1.69631E+03-4.47903E+03-3.92852E+03-2.83012E+01
 -1         7 4.13334E+04 1.77143E+04 1.77143E+04 3.45479E+04 1.39338E-02-8.10130E+02
 -1         8-4.15506E+04-1.78074E+04-1.78074E+04 3.46547E+04 1.39338E-02 7.61272E+02
 -1         9-2.17033E+04-5.27607E+03 1.80274E+03-4.72332E+03 3.92852E+03 5.81468E+01
 -1        10-1.50360E+04-9.43538E+03-5.82956E+03-5.69739E+03 1.49243E+02-6.44978E+02
 -1        11 1.36349E+04 2.59631E+03 5.60515E+03-5.10203E+03 1.49243E+02 8.66732E+02
 -1        12 2.25125E+04 6.93895E+03-1.69631E+03-4.47903E+03 3.92852E+03 2.83012E+01
 -3
    1PSTEP                         3           1           1          
  100CL  101 1.000000000          12                     0    1           1
 -4  TOSTRAIN    6    1
 -5  EXX         1    4    1    1
 -5  EYY         1    4    2    2
 -5  EZZ         1    4    3    3
 -5  EXY         1    4    1    2
 -5  EYZ         1    4    2    3
 -5  EZX         1    4    3    1
 -1         1 1.46214E-01-5.57923E-08-1.46986E-07 2.13868E-01-8.62567E-08 5.01509E-03
 -1         2-1.46982E-01-5.57923E-08 1.98041E-07 2.14529E-01-8.62567E-08-4.71264E-03
 -1         3-9.83873E-02 3.30526E-03 4.71265E-02-2.92396E-02-2.43194E-02-3.59957E-04
 -1         4-4.97928E-02-1.51225E-02 7.19925E-03-3.52696E-02-9.23884E-04 3.99272E-03
 -1         5 5.32119E-02-1.51225E-02 3.50371E-03-3.15840E-02-9.23884E-04-5.36549E-03
 -1         6 9.97127E-02 3.30526E-03-5.01511E-02-2.77273E-02-2.43194E-02-1.75198E-04
 -1         7 1.46214E-01-5.57923E-08-1.46986E-07 2.13868E-01 8.62567E-08-5.01509E-03
 -1         8-1.46982E-01-5.57923E-08 1.98041E-07 2.14529E-01 8.62567E-08 4.71264E-03
 -1         9-9.83873E-02 3.30526E-03 4.71265E-02-2.92396E-02 2.43194E-02 3.59957E-04
 -1        10-4.97928E-02-1.51225E-02 7.19925E-03-3.52696E-02 9.23884E-04-3.99272E-03
 -1        11 5.32119E-02-1.51225E-02 3.50371E-03-3.15840E-02 9.23884E-04 5.36549E-03
 -1        12 9.97127E-02 3.30526E-03-5.01511E-02-2.77273E-02 2.43194E-02 1.75198E-04
 -3
    1PSTEP                         4           1           1          
  100CL  101 1.000000000          12                     0    1           1
 -4  ERROR       1    1
 -5  STR(%)      1    1    0    0
 -1         1 7.77013E+01
 -1         2 7.77013E+01
 -1         3 8.61614E+01
 -1         4 8.61614E+01
 -1         5 8.61614E+01
 -1         6 8.61614E+01
 -1         7 7.77013E+01
 -1         8 7.77013E+01
 -1         9 8.61614E+01
 -1        10 8.61614E+01
 -1        11 8.61614E+01
 -1        12 8.61614E+01
 -3
